p cnf 33 86
a 20 4 0
e 1 2 3 5 6 7 8 9 10 11 12 13 14 15 16 17 18 19 21 22 23 24 25 26 27 28 29 30 31 32 33 0
-1 -2 -3 0
1 2 -3 0
-1 2 3 0
1 -2 3 0
-4 -5 -6 0
4 5 -6 0
-4 5 6 0
4 -5 6 0
-6 1 -7 0
6 -1 -7 0
-6 -1 7 0
6 1 7 0
-8 -9 -10 0
8 9 -10 0
-8 9 10 0
8 -9 10 0
11 10 0
11 -9 0
-10 9 -11 0
13 11 0
13 12 0
-11 -12 -13 0
7 13 -14 0
-7 -13 -14 0
7 -13 14 0
-7 13 14 0
15 3 0
15 -14 0
-3 14 -15 0
16 9 0
16 2 0
-9 -2 -16 0
18 17 0
18 8 0
-17 -8 -18 0
19 -18 0
19 2 0
18 -2 -19 0
-20 19 0
-20 9 0
-19 -9 20 0
21 16 0
21 -20 0
-16 20 -21 0
-19 -12 -22 0
19 12 -22 0
-19 12 22 0
19 -12 22 0
23 -22 0
23 -11 0
22 11 -23 0
24 9 0
24 23 0
-9 -23 -24 0
-26 -12 0
-26 -25 0
12 25 26 0
28 26 0
28 27 0
-26 -27 -28 0
-29 -24 0
-29 -28 0
24 28 29 0
-25 -26 -30 0
25 26 -30 0
-25 26 30 0
25 -26 30 0
-29 -30 -31 0
29 30 -31 0
-29 30 31 0
29 -30 31 0
32 21 0
32 31 0
-21 -31 -32 0
33 15 0
33 -32 0
-15 32 -33 0
-20 -22 -2 -1 -18 -15 0
12 -9 23 11 -8 21 0
-31 6 18 -14 -30 0
-9 -14 3 -1 -23 -10 0
-20 -3 -32 9 0
-23 -31 -14 30 0
-11 15 -7 4 32 13 0
11 -7 -6 0
33 0
